LAMMPS (19 Nov 2024)
  using 16 OpenMP thread(s) per MPI task
units           lj
dimension       3
boundary        f f f
atom_style      bond
special_bonds   lj 0.0 1.0 1.0 coul 0.0 1.0 1.0
newton          on off
comm_modify     vel yes cutoff 2.6
lattice         fcc 1.0
Lattice spacing in x,y,z = 1.5874011 1.5874011 1.5874011
region          box block -25 15 -22 22 -22 22
create_box      1 box bond/types 2 extra/bond/per/atom 20 extra/special/per/atom 50
Created orthogonal box = (-39.685026 -34.922823 -34.922823) to (23.811016 34.922823 34.922823)
  1 by 1 by 1 MPI processor grid

region          disk cylinder x 0.0 0.0 20.0 -0.5 0.5
create_atoms    1 region disk
Created 7529 atoms
  using lattice units in orthogonal box = (-39.685026 -34.922823 -34.922823) to (23.811016 34.922823 34.922823)
  create_atoms CPU = 0.004 seconds
group           plate region disk
7529 atoms in group plate

region          ball sphere 8.0 0.0 0.0 6.0
create_atoms    1 region ball
Created 3589 atoms
  using lattice units in orthogonal box = (-39.685026 -34.922823 -34.922823) to (23.811016 34.922823 34.922823)
  create_atoms CPU = 0.001 seconds
group           projectile region ball
3589 atoms in group projectile

displace_atoms  all random 0.1 0.1 0.1 134598738
Displacing atoms ...

mass            1 1.0

neighbor        1.0 bin
pair_style      bpm/spring
pair_coeff      1 1 1.0 1.0 1.0

fix             1 all nve

create_bonds    many plate plate 1 0.0 1.5
Generated 0 of 0 mixed pair_coeff terms from geometric mixing rule
Neighbor list info ...
  update: every = 1 steps, delay = 0 steps, check = yes
  max neighbors/atom: 2000, page size: 100000
  master list distance cutoff = 2
  ghost atom cutoff = 2.6
  binsize = 1, bins = 64 70 70
  2 neighbor lists, perpetual/occasional/extra = 1 1 0
  (1) command create_bonds, occasional
      attributes: full, newton on
      pair build: full/bin
      stencil: full/bin/3d
      bin: standard
  (2) pair bpm/spring, perpetual
      attributes: half, newton on
      pair build: half/bin/newton
      stencil: half/bin/3d
      bin: standard
Added 38559 bonds, new total = 38559
Finding 1-2 1-3 1-4 neighbors ...
  special bond factors lj:    0        1        1       
  special bond factors coul:  0        1        1       
    15 = max # of 1-2 neighbors
   101 = max # of special neighbors
  special bonds CPU = 0.003 seconds
create_bonds    many projectile projectile 2 0.0 1.5
Generated 0 of 0 mixed pair_coeff terms from geometric mixing rule
WARNING: Bonds are defined but no bond style is set (src/force.cpp:197)
WARNING: Likewise 1-2 special neighbor interactions != 1.0 (src/force.cpp:199)
Neighbor list info ...
  update: every = 1 steps, delay = 0 steps, check = yes
  max neighbors/atom: 2000, page size: 100000
  master list distance cutoff = 2
  ghost atom cutoff = 2.6
  binsize = 1, bins = 64 70 70
  2 neighbor lists, perpetual/occasional/extra = 1 1 0
  (1) command create_bonds, occasional
      attributes: full, newton on
      pair build: full/bin
      stencil: full/bin/3d
      bin: standard
  (2) pair bpm/spring, perpetual
      attributes: half, newton on
      pair build: half/bin/newton
      stencil: half/bin/3d
      bin: standard
Added 21869 bonds, new total = 60428
Finding 1-2 1-3 1-4 neighbors ...
  special bond factors lj:    0        1        1       
  special bond factors coul:  0        1        1       
    16 = max # of 1-2 neighbors
   101 = max # of special neighbors
  special bonds CPU = 0.005 seconds

neighbor        0.3 bin
special_bonds   lj 0.0 1.0 1.0 coul 1.0 1.0 1.0

bond_style      bpm/spring store/local brkbond 100 time id1 id2
bond_coeff      1 1.0 0.04 1.0
bond_coeff      2 1.0 0.20 1.0

velocity        projectile set -0.05 0.0 0.0
compute         nbond all nbond/atom
compute         tbond all reduce sum c_nbond

timestep        0.1
thermo_style    custom step ke pe pxx pyy pzz c_tbond
thermo          100
thermo_modify   lost ignore lost/bond ignore
#dump            1 all custom 100 atomDump id x y z c_nbond

#dump            2 all local 100 brokenDump f_brkbond[1] f_brkbond[2] f_brkbond[3]
#dump_modify     2 header no

run             7500

CITE-CITE-CITE-CITE-CITE-CITE-CITE-CITE-CITE-CITE-CITE-CITE-CITE

Your simulation uses code contributions which should be cited:

- BPM bond style: doi:10.1039/D3SM01373A

@Article{Clemmer2024,
 author =  {Clemmer, Joel T. and Monti, Joseph M. and Lechman, Jeremy B.},
 title =   {A soft departure from jamming: the compaction of deformable
            granular matter under high pressures},
 journal = {Soft Matter},
 year =    2024,
 volume =  20,
 number =  8,
 pages =   {1702--1718}
}

CITE-CITE-CITE-CITE-CITE-CITE-CITE-CITE-CITE-CITE-CITE-CITE-CITE

Generated 0 of 0 mixed pair_coeff terms from geometric mixing rule
Neighbor list info ...
  update: every = 1 steps, delay = 0 steps, check = yes
  max neighbors/atom: 2000, page size: 100000
  master list distance cutoff = 1.3
  ghost atom cutoff = 2.6
  binsize = 0.65, bins = 98 108 108
  1 neighbor lists, perpetual/occasional/extra = 1 0 0
  (1) pair bpm/spring, perpetual
      attributes: half, newton on
      pair build: half/bin/newton
      stencil: half/bin/3d
      bin: standard
Per MPI rank memory allocation (min/avg/max) = 35.36 | 35.36 | 35.36 Mbytes
   Step         KinEng         PotEng          Pxx            Pyy            Pzz          c_tbond    
         0   0.0010167873   0              7.298968e-05   0              0              10.8703      
       100   0.0010167873   0              7.298968e-05  -8.7429897e-20 -8.8470837e-20  10.8703      
       200   0.0010167873   0              7.298968e-05  -7.2809565e-20 -8.0915788e-20  10.8703      
       300   0.0009951439   0              9.9273671e-05  8.1569216e-06  8.0922512e-06  10.868142    
       400   0.00095142792  0              0.00012669557 -1.3413721e-05 -1.4800745e-05  10.849793    
       500   0.00092272662  0              8.1708784e-05 -9.7488701e-06 -1.3603634e-05  10.819752    
       600   0.00088967612  0              6.2587266e-05 -5.1954127e-06 -6.781587e-06   10.797985    
       700   0.00086070919  0              8.8529902e-05 -9.9431205e-06 -7.9905211e-06  10.776579    
       800   0.00083543943  0              7.5920357e-05  3.6381024e-07  3.7747551e-06  10.759309    
       900   0.00081190799  0              6.3678219e-05  5.4158243e-06  1.2751247e-05  10.744199    
      1000   0.00078828988  0              7.3079869e-05 -6.6410613e-06 -1.198683e-06   10.728368    
      1100   0.00075664718  0              6.2976995e-05 -4.7863299e-06 -3.9814556e-06  10.711819    
      1200   0.00072472205  0              4.9680233e-05  9.3093553e-06  4.4426393e-06  10.69401     
      1300   0.00070176532  0              5.4048176e-05  1.3051954e-05  7.5448558e-06  10.671164    
      1400   0.00068599319  0              5.4062404e-05  9.9930199e-06  1.0353154e-05  10.650117    
      1500   0.0006786164   0              4.5038593e-05  8.067571e-06   9.8825461e-06  10.636266    
      1600   0.00067466823  0              4.6733251e-05  9.8595584e-06  1.1551081e-05  10.621335    
      1700   0.00066847126  0              5.1472453e-05  2.1569974e-07  6.0070599e-06  10.6127      
      1800   0.00065711827  0              5.0355189e-05 -8.030203e-06  -3.1395588e-06  10.599568    
      1900   0.00063882539  0              4.7146888e-05 -2.0596242e-05 -1.6494542e-05  10.581939    
      2000   0.00061717894  0              4.6698781e-05 -2.5473048e-05 -2.7703615e-05  10.567188    
      2100   0.00059261327  0              3.7701055e-05 -2.4637803e-05 -3.3919162e-05  10.552617    
      2200   0.00056527158  0              3.2239421e-05 -1.8786685e-05 -2.4202734e-05  10.538406    
      2300   0.00054054919  0              2.7410334e-05 -6.7011111e-06 -7.4354974e-06  10.520777    
      2400   0.00051820065  0              2.2997206e-05  1.5623766e-05  1.8687824e-05  10.501889    
      2500   0.00049647925  0              1.746693e-05   2.8814144e-05  3.5569425e-05  10.487498    
      2600   0.00047837258  0              1.4127067e-05  3.4245611e-05  4.0208577e-05  10.472387    
      2700   0.00046626924  0              1.3714876e-05  3.7922196e-05  4.1550346e-05  10.456377    
      2800   0.0004560167   0              1.5260976e-05  3.5632577e-05  3.7885738e-05  10.440007    
      2900   0.00045331059  0              1.5194832e-05  3.1036124e-05  2.8633755e-05  10.427955    
      3000   0.00045227799  0              1.4877378e-05  1.9327028e-05  2.1189487e-05  10.414283    
      3100   0.00044866178  0              2.0424612e-05 -2.7242291e-06  7.7121437e-06  10.40349     
      3200   0.00044336453  0              2.3276121e-05 -1.979069e-05  -4.2311088e-06  10.395575    
      3300   0.00043526526  0              2.3338132e-05 -2.834945e-05  -1.7302032e-05  10.389998    
      3400   0.00042817758  0              2.4374527e-05 -2.9870076e-05 -3.0623264e-05  10.382803    
      3500   0.00042182658  0              2.6120627e-05 -2.944952e-05  -3.787776e-05   10.378126    
      3600   0.00041794291  0              2.4736957e-05 -2.4098173e-05 -3.0529166e-05  10.373628    
      3700   0.0004156005   0              2.7543305e-05 -1.2431748e-05 -1.8626096e-05  10.37075     
      3800   0.0004141461   0              2.4630482e-05 -6.3454891e-06 -1.7375803e-05  10.368771    
      3900   0.00041328832  0              2.2220142e-05  4.1471126e-07 -1.3339476e-05  10.366972    
      4000   0.00041121725  0              2.3491321e-05  1.1284552e-05 -5.8651828e-06  10.364634    
      4100   0.00040761876  0              2.6688248e-05  1.9721625e-05  3.7536864e-06  10.362655    
      4200   0.00040301362  0              2.7601916e-05  1.9212117e-05  9.7175994e-06  10.359417    
      4300   0.00040001545  0              2.7243768e-05  1.6889358e-05  1.1857147e-05  10.3551      
      4400   0.00039654522  0              2.5610829e-05  1.3863553e-05  1.0593596e-05  10.351142    
      4500   0.00039435924  0              2.4366459e-05  1.2545562e-05  1.1323962e-05  10.348804    
      4600   0.00039250006  0              2.3719126e-05  1.101517e-05   8.5964067e-06  10.348444    
      4700   0.00039145496  0              2.294392e-05   8.7824318e-06  5.0397197e-06  10.346825    
      4800   0.00039105331  0              2.4005747e-05  7.589975e-06   9.0337148e-07  10.344846    
      4900   0.00038987981  0              2.3819424e-05  4.9673905e-06 -2.3466409e-06  10.343587    
      5000   0.0003874751   0              2.3605017e-05 -1.1717561e-06 -6.1096566e-06  10.343047    
      5100   0.00038549022  0              2.3453783e-05 -9.9255885e-06 -9.3584235e-06  10.341788    
      5200   0.00038283937  0              2.5243552e-05 -1.5877589e-05 -9.94749e-06    10.340169    
      5300   0.00038140888  0              2.5522283e-05 -1.9331369e-05 -1.1067059e-05  10.33873     
      5400   0.00037916673  0              2.5181503e-05 -2.1581217e-05 -1.1252488e-05  10.336931    
      5500   0.00037782931  0              2.6917944e-05 -1.5768204e-05 -5.6703876e-06  10.334952    
      5600   0.00037628832  0              2.5851351e-05 -1.4239882e-05 -1.9122949e-06  10.333153    
      5700   0.00037451915  0              2.4758346e-05 -1.3252432e-05 -1.9223954e-06  10.331714    
      5800   0.00037328663  0              2.2507074e-05 -9.6702799e-06 -7.5470881e-06  10.330095    
      5900   0.00037253111  0              2.3303369e-05 -4.2827295e-06 -7.8876594e-06  10.328476    
      6000   0.00037171137  0              2.4042351e-05 -4.7685141e-06 -6.5167219e-06  10.327397    
      6100   0.00036986731  0              2.4938577e-05 -4.8737759e-06 -4.5381902e-06  10.327037    
      6200   0.00036758225  0              2.3322111e-05 -4.6336401e-06 -5.7085241e-06  10.327037    
      6300   0.00036552382  0              2.1434846e-05 -4.8967441e-06 -3.5946604e-06  10.327037    
      6400   0.00036488089  0              2.081405e-05  -3.833634e-06  -3.6599028e-06  10.327037    
      6500   0.00036447992  0              2.2242657e-05  8.8118523e-08 -4.1406389e-06  10.327037    
      6600   0.00036383356  0              2.2694282e-05  4.9363821e-06  1.3069554e-06  10.326677    
      6700   0.00036304964  0              2.183964e-05   6.4591542e-06  4.7748726e-06  10.326318    
      6800   0.0003622661   0              2.2917631e-05  6.0442195e-06  5.0292471e-06  10.325598    
      6900   0.00036175298  0              2.2692344e-05  7.0012242e-06  5.9001845e-06  10.324699    
      7000   0.00036143663  0              2.1726529e-05  8.1284788e-06  5.0386437e-06  10.324519    
      7100   0.00036102488  0              2.1799962e-05  8.6594828e-06  3.137492e-06   10.323439    
      7200   0.00036086278  0              2.2193539e-05  5.1760214e-06  5.4033114e-07  10.32308     
      7300   0.00036099465  0              2.4164939e-05  1.020528e-06  -5.1236422e-07  10.32254     
      7400   0.00036129151  0              2.5321911e-05 -9.5437368e-07 -1.707369e-06   10.32218     
      7500   0.00036136735  0              2.3522821e-05 -3.8522672e-06 -4.4274197e-06  10.321281    
Loop time of 10.9696 on 16 procs for 7500 steps with 11118 atoms

Performance: 5907209.306 tau/day, 683.705 timesteps/s, 7.601 Matom-step/s
470.3% CPU use with 1 MPI tasks x 16 OpenMP threads

MPI task timing breakdown:
Section |  min time  |  avg time  |  max time  |%varavg| %total
---------------------------------------------------------------
Pair    | 0.73894    | 0.73894    | 0.73894    |   0.0 |  6.74
Bond    | 5.0641     | 5.0641     | 5.0641     |   0.0 | 46.16
Neigh   | 2.9668     | 2.9668     | 2.9668     |   0.0 | 27.05
Comm    | 0.060925   | 0.060925   | 0.060925   |   0.0 |  0.56
Output  | 0.032178   | 0.032178   | 0.032178   |   0.0 |  0.29
Modify  | 1.2578     | 1.2578     | 1.2578     |   0.0 | 11.47
Other   |            | 0.8489     |            |       |  7.74

Nlocal:          11118 ave       11118 max       11118 min
Histogram: 1 0 0 0 0 0 0 0 0 0
Nghost:              0 ave           0 max           0 min
Histogram: 1 0 0 0 0 0 0 0 0 0
Neighs:          47315 ave       47315 max       47315 min
Histogram: 1 0 0 0 0 0 0 0 0 0

Total # of neighbors = 47315
Ave neighs/atom = 4.2557115
Ave special neighs/atom = 10.321281
Neighbor list builds = 421
Dangerous builds = 0
Total wall time: 0:00:11
